WARNING: for repeatability, setting FPU to use double precision
============================[ Problem Statistics ]=============================
|                                                                             |
|  Number of variables:            50                                         |
|  Number of clauses:             218                                         |
|  Parse time:                   0.00 s                                       |
|                                                                             |
============================[ Search Statistics ]==============================
| Conflicts |          ORIGINAL         |          LEARNT          | Progress |
|           |    Vars  Clauses Literals |    Limit  Clauses Lit/Cl |          |
===============================================================================
===============================================================================
restarts              : 1
conflicts             : 19             (13718 /sec)
decisions             : 36             (0.00 % random) (25993 /sec)
propagations          : 357            (257762 /sec)
conflict literals     : 104            (3.70 % deleted)
Memory used           : 20.00 MB
CPU time              : 0.001385 s

SATISFIABLE
